param MaxCpu:= 7000;
param MinDisk:= 3000;
param MaxDisk:= 7000;
param MinMemory:= 8000;
param MaxMemory:= 16000;
param DemandGP:= 3800;
param DemandWS:= 3200;
param AltMemory:= 4000;


param: IsWorkstation:= 
1 0 
2 0 
3 0 
4 1 
5 1;

param: Price:= 
1 60000 
2 40000 
3 30000 
4 30000 
5 15000;

param: DiskDrives:= 
1 0.3 
2 1.7 
3 0 
4 1.4 
5 0;

param: MemoryBoards:= 
1 4 
2 2 
3 2 
4 2 
5 1;

param: Demand:= 
1 1800 
2 999999 
3 300 
4 999999 
5 999999;

param: Preorder:= 
1 0 
2 500 
3 0 
4 500 
5 400;

param: AltCompatible:= 
1 1 
2 0 
3 0 
4 0 
5 0;

